NAME : XML100_1262_13
DIMENSION : 101
NB_CLUSTERS : 3
CLUSTERING_ALG : KMedoids
CLUSTERING_PARAMS : k(2)
CLUSTERS
1 0
2 4 5 7 11 12 13 14 15 19 20 21 22 23 24 25 26 28 29 30 31 33 34 35 36 37 38 39 40 41 43 45 46 47 49 51 52 53 56 57 58 61 65 66 67 70 71 72 77 81 82 85 86 87 88 89 90 91 92 97 98 99
3 1 2 3 6 8 9 10 16 17 18 27 32 42 44 48 50 54 55 59 60 62 63 64 68 69 73 74 75 76 78 79 80 83 84 93 94 95 96 100
EOF